benchmark/results/graph__10-1000-0.10-03_15/graph__10-1000-0.10-03_15_Quinton_Benders_aux.lp
\ This file has been generated by DOcplex
\ ENCODING=ISO-8859-1
\Problem name: Quinton Benders_auxiliary_sub

Minimize
 obj: 0.001173518786 pi_nr_a0 + 0.001245120538 pi_nr_a1
      + 0.001170198252 pi_nr_a2 + 0.001453488372 pi_nr_a3
      + 0.000975857994 pi_nr_a4 + 0.001046148482 pi_nr_a5
      + 0.001192490997 pi_nr_a6 + 0.001661471029 pi_nr_a7
      + 0.001180056897 pi_nr_a8 + 0.000951474786 pi_nr_a9 + pi_p_a0_a2
      + pi_p_a6_a1 + pi_p_a6_a7 + pi_p_a6_a8 + pi_p_a2_a5 + pi_p_a4_a5
      + pi_p_a3_a7 + pi_p_a9_a9 + pi_p_a9_a5
      + 2550.457155593932 pi_d_a0_a1_proc_2
      + 3825.457155584667 pi_d_a0_a1_proc_1
      + 2550.457155603205 pi_d_a0_a1_proc_0 + 0.542844406063 pi_d_a1_a0_proc_2
      + 1275.542844396798 pi_d_a1_a0_proc_1 + 0.542844415335 pi_d_a1_a0_proc_0
      + 1.482359912428 pi_d_a0_a2_proc_2 + 1357.414977099928 pi_d_a0_a2_proc_1
      + 163.347594287429 pi_d_a0_a2_proc_0 + 2387.652405712572 pi_d_a2_a0_proc_2
      + 3743.585022900072 pi_d_a2_a0_proc_1
      + 2549.517640087572 pi_d_a2_a0_proc_0 + 0.562270168807 pi_d_a0_a3_proc_2
      + 2549.939711580979 pi_d_a0_a3_proc_1
      + 2549.317152993831 pi_d_a0_a3_proc_0 + 1.682847006395 pi_d_a3_a0_proc_2
      + 2551.060288418568 pi_d_a3_a0_proc_1
      + 2550.437729831420 pi_d_a3_a0_proc_0
      + 2469.541143784537 pi_d_a0_a4_proc_2
      + 2559.160333399887 pi_d_a0_a4_proc_1
      + 3772.585528415765 pi_d_a0_a4_proc_0 + 3.016473384411 pi_d_a4_a0_proc_2
      + 92.635662999761 pi_d_a4_a0_proc_1 + 1306.060858015639 pi_d_a4_a0_proc_0
      + 2393.499145225977 pi_d_a0_a5_proc_2
      + 2393.499145170307 pi_d_a0_a5_proc_0 + 157.500854829693 pi_d_a5_a0_proc_2
      + 157.500854774023 pi_d_a5_a0_proc_0 + 317.437257277683 pi_d_a0_a6_proc_2
      + 336.736573702697 pi_d_a0_a6_proc_1 + 1571.270265099894 pi_d_a0_a6_proc_0
      + 2234.807859890833 pi_d_a6_a0_proc_2
      + 2254.107176315847 pi_d_a6_a0_proc_1
      + 3488.640867713045 pi_d_a6_a0_proc_0
      + 1293.511673558378 pi_d_a0_a7_proc_2
      + 3191.692824733243 pi_d_a0_a7_proc_1
      + 2556.683059692682 pi_d_a0_a7_proc_0 - 0.080031764491 pi_d_a7_a0_proc_2
      + 1898.101119410374 pi_d_a7_a0_proc_1
      + 1263.091354369813 pi_d_a7_a0_proc_0 + 318.163996973336 pi_d_a0_a8_proc_2
      + 332.554193399101 pi_d_a0_a8_proc_1 + 1576.906124821854 pi_d_a0_a8_proc_0
      + 2234.081120177142 pi_d_a8_a0_proc_2
      + 2248.471316602907 pi_d_a8_a0_proc_1
      + 3492.823248025660 pi_d_a8_a0_proc_0
      + 1471.195148424248 pi_d_a0_a9_proc_1
      + 1079.804851575752 pi_d_a9_a0_proc_1
      + 2547.153836468307 pi_d_a1_a2_proc_2
      + 2629.331570815492 pi_d_a1_a2_proc_1 + 161.509305190481 pi_d_a1_a2_proc_0
      + 2389.490694818786 pi_d_a2_a1_proc_2
      + 2471.668429165972 pi_d_a2_a1_proc_1 + 3.846163540961 pi_d_a2_a1_proc_0
      + 2231.170438024813 pi_d_a1_a3_proc_2
      + 3506.792996596671 pi_d_a1_a3_proc_1
      + 2232.415555197012 pi_d_a1_a3_proc_0 + 318.584444812482 pi_d_a3_a1_proc_2
      + 1594.207003384340 pi_d_a3_a1_proc_1 + 319.829561984681 pi_d_a3_a1_proc_0
      + 3771.520256926242 pi_d_a1_a4_proc_2
      + 2587.384563701277 pi_d_a1_a4_proc_1
      + 2527.054875904643 pi_d_a1_a4_proc_0
      + 1248.547125904800 pi_d_a4_a1_proc_2 + 64.411432679835 pi_d_a4_a1_proc_1
      + 4.081744883202 pi_d_a4_a1_proc_0 + 2549.754882569764 pi_d_a1_a5_proc_2
      + 2.245116861267 pi_d_a1_a5_proc_0 + 2548.754883148000 pi_d_a5_a1_proc_2
      + 1.245117439504 pi_d_a5_a1_proc_0 + 1491.166061737612 pi_d_a1_a6_proc_2
      + 236.710495322312 pi_d_a1_a6_proc_1 + 197.489303906998 pi_d_a1_a6_proc_0
      + 3608.588821092998 pi_d_a6_a1_proc_2
      + 2354.133254677698 pi_d_a6_a1_proc_1
      + 2314.912063262384 pi_d_a6_a1_proc_0
      + 1406.102078659289 pi_d_a1_a7_proc_2
      + 2030.528346993840 pi_d_a1_a7_proc_1 + 121.763699140768 pi_d_a1_a7_proc_0
      + 2434.839328796691 pi_d_a7_a1_proc_2
      + 3059.265597131242 pi_d_a7_a1_proc_1
      + 1150.500949278170 pi_d_a7_a1_proc_0
      + 3648.377841327511 pi_d_a1_a8_proc_2
      + 2389.013154912961 pi_d_a1_a8_proc_1
      + 2359.610203523202 pi_d_a1_a8_proc_0
      + 1451.377041485062 pi_d_a8_a1_proc_2 + 192.012355070511 pi_d_a8_a1_proc_1
      + 162.609403680753 pi_d_a8_a1_proc_0 + 0.683669744300 pi_d_a1_a9_proc_1
      + 2550.316330237165 pi_d_a9_a1_proc_1
      + 2386.389648456275 pi_d_a2_a3_proc_2
      + 3742.944824224899 pi_d_a2_a3_proc_1
      + 2549.499999994202 pi_d_a2_a3_proc_0 + 1.500000006024 pi_d_a3_a2_proc_2
      + 1358.055175774648 pi_d_a3_a2_proc_1 + 164.610351543951 pi_d_a3_a2_proc_0
      + 3397.229323277550 pi_d_a2_a4_proc_2
      + 2294.026247249351 pi_d_a2_a4_proc_1
      + 2314.629176621680 pi_d_a2_a4_proc_0
      + 1460.972825178496 pi_d_a4_a2_proc_2 + 357.769749150297 pi_d_a4_a2_proc_1
      + 378.372678522626 pi_d_a4_a2_proc_0 + 2549.754882905264 pi_d_a2_a5_proc_2
      + 164.110351562496 pi_d_a2_a5_proc_0 + 2386.889648437504 pi_d_a5_a2_proc_2
      + 1.245117094736 pi_d_a5_a2_proc_0 + 3446.034010774877 pi_d_a2_a6_proc_2
      + 2272.511061556343 pi_d_a2_a6_proc_1
      + 2314.222487309991 pi_d_a2_a6_proc_0
      + 1491.855637680736 pi_d_a6_a2_proc_2 + 318.332688462202 pi_d_a6_a2_proc_1
      + 360.044114215850 pi_d_a6_a2_proc_0 + 2244.078613893521 pi_d_a2_a7_proc_2
      + 2949.437499424837 pi_d_a2_a7_proc_1
      + 1121.605468740728 pi_d_a2_a7_proc_0
      + 1434.997559187464 pi_d_a7_a2_proc_2
      + 2140.356444718780 pi_d_a7_a2_proc_1 + 312.524414034670 pi_d_a7_a2_proc_0
      + 1209.109169028852 pi_d_a2_a8_proc_2 + 30.677099811068 pi_d_a2_a8_proc_1
      + 82.206765590272 pi_d_a2_a8_proc_0 + 3728.780479408724 pi_d_a8_a2_proc_2
      + 2550.348410190939 pi_d_a8_a2_proc_1
      + 2601.878075970144 pi_d_a8_a2_proc_0 + 0.047027588326 pi_d_a2_a9_proc_1
      + 2550.952972411674 pi_d_a9_a2_proc_1
      + 2395.621093752462 pi_d_a3_a4_proc_2
      + 2485.862841948935 pi_d_a3_a4_proc_1
      + 3699.910595546616 pi_d_a3_a4_proc_0 + 75.691406253787 pi_d_a4_a3_proc_2
      + 165.933154450260 pi_d_a4_a3_proc_1 + 1379.980908047941 pi_d_a4_a3_proc_0
      + 2387.889648443317 pi_d_a3_a5_proc_2
      + 2389.134765550573 pi_d_a3_a5_proc_0 + 161.865234449654 pi_d_a5_a3_proc_2
      + 163.110351556910 pi_d_a5_a3_proc_0 + 2390.124999736924 pi_d_a3_a6_proc_2
      + 2410.046874743061 pi_d_a3_a6_proc_1
      + 3645.203124722062 pi_d_a3_a6_proc_0 + 160.875000268893 pi_d_a6_a3_proc_2
      + 180.796875275030 pi_d_a6_a3_proc_1 + 1415.953125254031 pi_d_a6_a3_proc_0
      + 1277.245117796615 pi_d_a3_a7_proc_2
      + 3176.048827552603 pi_d_a3_a7_proc_1
      + 2541.661621093845 pi_d_a3_a7_proc_0 + 14.941406834573 pi_d_a7_a3_proc_2
      + 1913.745116590561 pi_d_a7_a3_proc_1
      + 1279.357910131803 pi_d_a7_a3_proc_0
      + 2392.587755103596 pi_d_a3_a8_proc_2
      + 2407.600510110485 pi_d_a3_a8_proc_1
      + 3652.575000115041 pi_d_a3_a8_proc_0 + 158.412244884182 pi_d_a8_a3_proc_2
      + 173.424999891070 pi_d_a8_a3_proc_1 + 1418.399489895626 pi_d_a8_a3_proc_0
      + 1593.671645816381 pi_d_a3_a9_proc_1 + 957.328354183166 pi_d_a9_a3_proc_1
      + 3774.900878340006 pi_d_a4_a5_proc_2
      + 2530.435497253465 pi_d_a4_a5_proc_0
      + 1245.166504546711 pi_d_a5_a4_proc_2 + 0.701123460170 pi_d_a5_a4_proc_0
      + 2580.476123195316 pi_d_a4_a6_proc_2 + 140.639746404631 pi_d_a4_a6_proc_1
      + 2589.843749986657 pi_d_a4_a6_proc_0
      + 2440.836376804247 pi_d_a6_a4_proc_2 + 1.000000013562 pi_d_a6_a4_proc_1
      + 2450.204003595588 pi_d_a6_a4_proc_0
      + 3111.302734813430 pi_d_a4_a7_proc_2
      + 2550.348192772596 pi_d_a4_a7_proc_1
      + 3130.008739916863 pi_d_a4_a7_proc_0 + 651.196289811504 pi_d_a7_a4_proc_2
      + 90.241747770669 pi_d_a7_a4_proc_1 + 669.902294914937 pi_d_a7_a4_proc_0
      + 2556.216554533965 pi_d_a4_a8_proc_2 + 111.471057744030 pi_d_a4_a8_proc_1
      + 2570.493301351612 pi_d_a4_a8_proc_0
      + 2465.095945447561 pi_d_a8_a4_proc_2 + 20.350448657625 pi_d_a8_a4_proc_1
      + 2479.372692265207 pi_d_a8_a4_proc_0 + 101.264478321953 pi_d_a4_a9_proc_1
      + 0.531518077695 pi_d_a9_a4_proc_1 + 1294.824995785813 pi_d_a5_a6_proc_2
      + 1.148237890256 pi_d_a5_a6_proc_0 + 3804.929887100471 pi_d_a6_a5_proc_2
      + 2511.253129204914 pi_d_a6_a5_proc_0
      + 2385.638699019227 pi_d_a5_a7_proc_2
      + 1101.300319435763 pi_d_a5_a7_proc_0
      + 1455.302708492429 pi_d_a7_a5_proc_2 + 170.964328908964 pi_d_a7_a5_proc_0
      + 3809.902864932516 pi_d_a5_a8_proc_2
      + 2521.135227063264 pi_d_a5_a8_proc_0
      + 1289.852017935732 pi_d_a8_a5_proc_2 + 1.084380066481 pi_d_a8_a5_proc_0
      + 3004.225585937106 pi_d_a6_a7_proc_2
      + 2372.951170705936 pi_d_a6_a7_proc_1
      + 2973.720214231524 pi_d_a6_a7_proc_0 + 837.960938687396 pi_d_a7_a6_proc_2
      + 206.686523456226 pi_d_a7_a6_proc_1 + 807.455566981813 pi_d_a7_a6_proc_0
      + 2585.934629843049 pi_d_a6_a8_proc_2 + 70.869259862778 pi_d_a6_a8_proc_1
      + 2550.999999851680 pi_d_a6_a8_proc_0
      + 2515.065370138044 pi_d_a8_a6_proc_2 + 0.000000157774 pi_d_a8_a6_proc_1
      + 2480.130740146675 pi_d_a8_a6_proc_0 + 40.644018011089 pi_d_a6_a9_proc_1
      + 0.199732007455 pi_d_a9_a6_proc_1 + 843.656513712539 pi_d_a7_a8_proc_2
      + 207.472978482120 pi_d_a7_a8_proc_1 + 818.060262033263 pi_d_a7_a8_proc_0
      + 2998.530010893925 pi_d_a8_a7_proc_2
      + 2362.346475663505 pi_d_a8_a7_proc_1
      + 2972.933759214648 pi_d_a8_a7_proc_0 + 104.797642895102 pi_d_a7_a9_proc_1
      + 2434.996301248515 pi_d_a9_a7_proc_1 + 29.769123255084 pi_d_a8_a9_proc_1
      + 1.256386746924 pi_d_a9_a8_proc_1 + 0.000488281243 pi_y2_a0_proc_0
      + 0.000000000000 pi_y2_a0_proc_1 + 0.999511718757 pi_y2_a0_proc_2
      + 0.999511718750 pi_y2_a1_proc_0 + 0.000000000007 pi_y2_a1_proc_1
      + 0.000488281243 pi_y2_a1_proc_2 + 0.936035156257 pi_y2_a2_proc_0
      + 0.000000000000 pi_y2_a2_proc_1 + 0.063964843743 pi_y2_a2_proc_2
      + 0.000000000002 pi_y2_a3_proc_0 + 0.000000000000 pi_y2_a3_proc_1
      + 0.999999999998 pi_y2_a3_proc_2 + 0.008277841725 pi_y2_a4_proc_0
      + 0.960472158275 pi_y2_a4_proc_1 + 0.031250000000 pi_y2_a4_proc_2
      + 0.999511718779 pi_y2_a5_proc_0 + 0.000488281221 pi_y2_a5_proc_2
      + 0.015625000007 pi_y2_a6_proc_0 + 0.984374999993 pi_y2_a6_proc_1
      + 0.000000000000 pi_y2_a6_proc_2 + 0.501953125007 pi_y2_a7_proc_0
      + 0.004394531708 pi_y2_a7_proc_1 + 0.493652343284 pi_y2_a7_proc_2
      + 0.011774709797 pi_y2_a8_proc_0 + 0.988225290195 pi_y2_a8_proc_1
      + 0.000000000007 pi_y2_a8_proc_2 + pi_y2_a9_proc_1
Subject To
 c1: 0.001173708920 pi_nr_a0 + 0.001245330012 pi_nr_a1 + 0.001184834123 pi_nr_a2
     + 0.001453488372 pi_nr_a3 + 0.000978473581 pi_nr_a4
     + 0.001046025105 pi_nr_a5 + 0.001197604790 pi_nr_a6
     + 0.002105263158 pi_nr_a7 + 0.001182033097 pi_nr_a8
     + 0.000951474786 pi_nr_a9 + pi_p_a0_a2 + pi_p_a6_a1 + pi_p_a6_a7
     + pi_p_a6_a8 + pi_p_a2_a5 + pi_p_a4_a5 + pi_p_a3_a7 + pi_p_a9_a9
     + pi_p_a9_a5 + 2550 pi_d_a0_a1_proc_2 + 3825 pi_d_a0_a1_proc_1
     + 2550 pi_d_a0_a1_proc_0 + pi_d_a1_a0_proc_2 + 1276 pi_d_a1_a0_proc_1
     + pi_d_a1_a0_proc_0 + pi_d_a0_a2_proc_2 + 1276 pi_d_a0_a2_proc_1
     + pi_d_a0_a2_proc_0 + 2550 pi_d_a2_a0_proc_2 + 3825 pi_d_a2_a0_proc_1
     + 2550 pi_d_a2_a0_proc_0 + 2550 pi_d_a0_a3_proc_1 + 2550 pi_d_a0_a3_proc_0
     + pi_d_a3_a0_proc_2 + 2551 pi_d_a3_a0_proc_1 + 2551 pi_d_a3_a0_proc_0
     + 2550 pi_d_a0_a4_proc_2 + 2550 pi_d_a0_a4_proc_1 + 3825 pi_d_a0_a4_proc_0
     + pi_d_a4_a0_proc_2 + pi_d_a4_a0_proc_1 + 1276 pi_d_a4_a0_proc_0
     + 2551 pi_d_a0_a5_proc_2 + 2551 pi_d_a0_a5_proc_0 + 1275 pi_d_a0_a6_proc_0
     + 2551 pi_d_a6_a0_proc_2 + 2551 pi_d_a6_a0_proc_1 + 3826 pi_d_a6_a0_proc_0
     + 2551 pi_d_a0_a7_proc_2 + 3826 pi_d_a0_a7_proc_1 + 2551 pi_d_a0_a7_proc_0
     + 1275 pi_d_a7_a0_proc_1 + pi_d_a0_a8_proc_2 + pi_d_a0_a8_proc_1
     + 1276 pi_d_a0_a8_proc_0 + 2550 pi_d_a8_a0_proc_2 + 2550 pi_d_a8_a0_proc_1
     + 3825 pi_d_a8_a0_proc_0 + 2550 pi_d_a0_a9_proc_1 + pi_d_a9_a0_proc_1
     + 2551 pi_d_a1_a2_proc_2 + 2551 pi_d_a1_a2_proc_1 + pi_d_a1_a2_proc_0
     + 2550 pi_d_a2_a1_proc_2 + 2550 pi_d_a2_a1_proc_1 + 2549 pi_d_a1_a3_proc_2
     + 3824 pi_d_a1_a3_proc_1 + 2549 pi_d_a1_a3_proc_0 + 2 pi_d_a3_a1_proc_2
     + 1277 pi_d_a3_a1_proc_1 + 2 pi_d_a3_a1_proc_0 + 3824 pi_d_a1_a4_proc_2
     + 2549 pi_d_a1_a4_proc_1 + 2549 pi_d_a1_a4_proc_0 + 1277 pi_d_a4_a1_proc_2
     + 2 pi_d_a4_a1_proc_1 + 2 pi_d_a4_a1_proc_0 + 2551 pi_d_a1_a5_proc_2
     + pi_d_a1_a5_proc_0 + 2550 pi_d_a5_a1_proc_2 + 1275 pi_d_a1_a6_proc_2
     + 3826 pi_d_a6_a1_proc_2 + 2551 pi_d_a6_a1_proc_1 + 2551 pi_d_a6_a1_proc_0
     + 2551 pi_d_a1_a7_proc_2 + 2551 pi_d_a1_a7_proc_1 + pi_d_a1_a7_proc_0
     + 2550 pi_d_a7_a1_proc_2 + 2550 pi_d_a7_a1_proc_1 + 3826 pi_d_a1_a8_proc_2
     + 2551 pi_d_a1_a8_proc_1 + 2551 pi_d_a1_a8_proc_0 + 1275 pi_d_a8_a1_proc_2
     + 2551 pi_d_a9_a1_proc_1 + 2549 pi_d_a2_a3_proc_2 + 3824 pi_d_a2_a3_proc_1
     + 2549 pi_d_a2_a3_proc_0 + 2 pi_d_a3_a2_proc_2 + 1277 pi_d_a3_a2_proc_1
     + 2 pi_d_a3_a2_proc_0 + 3825 pi_d_a2_a4_proc_2 + 2550 pi_d_a2_a4_proc_1
     + 2550 pi_d_a2_a4_proc_0 + 1276 pi_d_a4_a2_proc_2 + pi_d_a4_a2_proc_1
     + pi_d_a4_a2_proc_0 + 2551 pi_d_a2_a5_proc_2 + pi_d_a2_a5_proc_0
     + 2550 pi_d_a5_a2_proc_2 + 3823 pi_d_a2_a6_proc_2 + 2548 pi_d_a2_a6_proc_1
     + 2548 pi_d_a2_a6_proc_0 + 1278 pi_d_a6_a2_proc_2 + 3 pi_d_a6_a2_proc_1
     + 3 pi_d_a6_a2_proc_0 + 2551 pi_d_a2_a7_proc_2 + 2551 pi_d_a2_a7_proc_1
     + pi_d_a2_a7_proc_0 + 2550 pi_d_a7_a2_proc_2 + 2550 pi_d_a7_a2_proc_1
     + 1276 pi_d_a2_a8_proc_2 + pi_d_a2_a8_proc_1 + pi_d_a2_a8_proc_0
     + 3825 pi_d_a8_a2_proc_2 + 2550 pi_d_a8_a2_proc_1 + 2550 pi_d_a8_a2_proc_0
     + 2551 pi_d_a9_a2_proc_1 + 2550 pi_d_a3_a4_proc_2 + 2550 pi_d_a3_a4_proc_1
     + 3825 pi_d_a3_a4_proc_0 + pi_d_a4_a3_proc_2 + pi_d_a4_a3_proc_1
     + 1276 pi_d_a4_a3_proc_0 + 2551 pi_d_a3_a5_proc_2 + 2551 pi_d_a3_a5_proc_0
     + 2549 pi_d_a3_a6_proc_2 + 2549 pi_d_a3_a6_proc_1 + 3824 pi_d_a3_a6_proc_0
     + 2 pi_d_a6_a3_proc_2 + 2 pi_d_a6_a3_proc_1 + 1277 pi_d_a6_a3_proc_0
     + 2551 pi_d_a3_a7_proc_2 + 3826 pi_d_a3_a7_proc_1 + 2551 pi_d_a3_a7_proc_0
     + 1275 pi_d_a7_a3_proc_1 + 2551 pi_d_a3_a8_proc_2 + 2551 pi_d_a3_a8_proc_1
     + 3826 pi_d_a3_a8_proc_0 + 1275 pi_d_a8_a3_proc_0 + 2550 pi_d_a3_a9_proc_1
     + pi_d_a9_a3_proc_1 + 3826 pi_d_a4_a5_proc_2 + 2551 pi_d_a4_a5_proc_0
     + 1275 pi_d_a5_a4_proc_2 + 2550 pi_d_a4_a6_proc_2 + 2550 pi_d_a4_a6_proc_0
     + 2551 pi_d_a6_a4_proc_2 + pi_d_a6_a4_proc_1 + 2551 pi_d_a6_a4_proc_0
     + 3826 pi_d_a4_a7_proc_2 + 2551 pi_d_a4_a7_proc_1 + 2551 pi_d_a4_a7_proc_0
     + 1275 pi_d_a7_a4_proc_2 + 2551 pi_d_a4_a8_proc_2 + pi_d_a4_a8_proc_1
     + 2551 pi_d_a4_a8_proc_0 + 2550 pi_d_a8_a4_proc_2 + 2550 pi_d_a8_a4_proc_0
     + pi_d_a4_a9_proc_1 + 1275 pi_d_a5_a6_proc_2 + 3826 pi_d_a6_a5_proc_2
     + 2551 pi_d_a6_a5_proc_0 + 2551 pi_d_a5_a7_proc_2 + pi_d_a5_a7_proc_0
     + 2550 pi_d_a7_a5_proc_2 + 3826 pi_d_a5_a8_proc_2 + 2551 pi_d_a5_a8_proc_0
     + 1275 pi_d_a8_a5_proc_2 + 3826 pi_d_a6_a7_proc_2 + 2551 pi_d_a6_a7_proc_1
     + 2551 pi_d_a6_a7_proc_0 + 1275 pi_d_a7_a6_proc_2 + 2551 pi_d_a6_a8_proc_2
     + pi_d_a6_a8_proc_1 + 2551 pi_d_a6_a8_proc_0 + 2550 pi_d_a8_a6_proc_2
     + 2550 pi_d_a8_a6_proc_0 + pi_d_a6_a9_proc_1 + 1276 pi_d_a7_a8_proc_2
     + pi_d_a7_a8_proc_1 + pi_d_a7_a8_proc_0 + 3825 pi_d_a8_a7_proc_2
     + 2550 pi_d_a8_a7_proc_1 + 2550 pi_d_a8_a7_proc_0 + 2551 pi_d_a9_a7_proc_1
     + pi_d_a9_a8_proc_1 + pi_y2_a0_proc_2 + pi_y2_a1_proc_0 + pi_y2_a2_proc_0
     + pi_y2_a3_proc_2 + pi_y2_a4_proc_1 + pi_y2_a5_proc_0 + pi_y2_a6_proc_1
     + pi_y2_a7_proc_0 + pi_y2_a8_proc_1 + pi_y2_a9_proc_1 = 0.000154440154
 c2: pi_nr_a0 + pi_nr_a1 + pi_nr_a2 + pi_nr_a3 + pi_nr_a4 + pi_nr_a5 + pi_nr_a6
     + pi_nr_a7 + pi_nr_a8 + pi_nr_a9 - pi_y1_a0 - pi_y1_a1 - pi_y1_a2
     - pi_y1_a3 - pi_y1_a4 - pi_y1_a5 - pi_y1_a6 - pi_y1_a7 - pi_y1_a8
     - pi_y1_a9 >= 1
 c3: - pi_p_a1_a0 + pi_p_a0_a2 + pi_d_a0_a1_proc_2 + pi_d_a0_a1_proc_1
     + pi_d_a0_a1_proc_0 - pi_d_a1_a0_proc_2 - pi_d_a1_a0_proc_1
     - pi_d_a1_a0_proc_0 + pi_d_a0_a2_proc_2 + pi_d_a0_a2_proc_1
     + pi_d_a0_a2_proc_0 - pi_d_a2_a0_proc_2 - pi_d_a2_a0_proc_1
     - pi_d_a2_a0_proc_0 + pi_d_a0_a3_proc_2 + pi_d_a0_a3_proc_1
     + pi_d_a0_a3_proc_0 - pi_d_a3_a0_proc_2 - pi_d_a3_a0_proc_1
     - pi_d_a3_a0_proc_0 + pi_d_a0_a4_proc_2 + pi_d_a0_a4_proc_1
     + pi_d_a0_a4_proc_0 - pi_d_a4_a0_proc_2 - pi_d_a4_a0_proc_1
     - pi_d_a4_a0_proc_0 + pi_d_a0_a5_proc_2 + pi_d_a0_a5_proc_0
     - pi_d_a5_a0_proc_2 - pi_d_a5_a0_proc_0 + pi_d_a0_a6_proc_2
     + pi_d_a0_a6_proc_1 + pi_d_a0_a6_proc_0 - pi_d_a6_a0_proc_2
     - pi_d_a6_a0_proc_1 - pi_d_a6_a0_proc_0 + pi_d_a0_a7_proc_2
     + pi_d_a0_a7_proc_1 + pi_d_a0_a7_proc_0 - pi_d_a7_a0_proc_2
     - pi_d_a7_a0_proc_1 - pi_d_a7_a0_proc_0 + pi_d_a0_a8_proc_2
     + pi_d_a0_a8_proc_1 + pi_d_a0_a8_proc_0 - pi_d_a8_a0_proc_2
     - pi_d_a8_a0_proc_1 - pi_d_a8_a0_proc_0 + pi_d_a0_a9_proc_1
     - pi_d_a9_a0_proc_1 >= 0
 c4: 1275 pi_p_a0_a2 + 1275 pi_d_a0_a1_proc_0 + 1275 pi_d_a0_a2_proc_0
     + 1275 pi_d_a0_a3_proc_0 + 1275 pi_d_a0_a4_proc_0 + 1275 pi_d_a0_a5_proc_0
     + 1275 pi_d_a0_a6_proc_0 + 1275 pi_d_a0_a7_proc_0 + 1275 pi_d_a0_a8_proc_0
     + pi_y1_a0 + pi_y2_a0_proc_0 >= 0
 c5: 610 pi_p_a0_a2 + 610 pi_d_a0_a1_proc_1 + 610 pi_d_a0_a2_proc_1
     + 610 pi_d_a0_a3_proc_1 + 610 pi_d_a0_a4_proc_1 + 610 pi_d_a0_a6_proc_1
     + 610 pi_d_a0_a7_proc_1 + 610 pi_d_a0_a8_proc_1 + 610 pi_d_a0_a9_proc_1
     + pi_y1_a0 + pi_y2_a0_proc_1 >= 0
 c6: 852 pi_p_a0_a2 + 852 pi_d_a0_a1_proc_2 + 852 pi_d_a0_a2_proc_2
     + 852 pi_d_a0_a3_proc_2 + 852 pi_d_a0_a4_proc_2 + 852 pi_d_a0_a5_proc_2
     + 852 pi_d_a0_a6_proc_2 + 852 pi_d_a0_a7_proc_2 + 852 pi_d_a0_a8_proc_2
     + pi_y1_a0 + pi_y2_a0_proc_2 >= 0
 c7: pi_p_a1_a0 - pi_p_a6_a1 + pi_p_a1_a9 - pi_d_a0_a1_proc_2
     - pi_d_a0_a1_proc_1 - pi_d_a0_a1_proc_0 + pi_d_a1_a0_proc_2
     + pi_d_a1_a0_proc_1 + pi_d_a1_a0_proc_0 + pi_d_a1_a2_proc_2
     + pi_d_a1_a2_proc_1 + pi_d_a1_a2_proc_0 - pi_d_a2_a1_proc_2
     - pi_d_a2_a1_proc_1 - pi_d_a2_a1_proc_0 + pi_d_a1_a3_proc_2
     + pi_d_a1_a3_proc_1 + pi_d_a1_a3_proc_0 - pi_d_a3_a1_proc_2
     - pi_d_a3_a1_proc_1 - pi_d_a3_a1_proc_0 + pi_d_a1_a4_proc_2
     + pi_d_a1_a4_proc_1 + pi_d_a1_a4_proc_0 - pi_d_a4_a1_proc_2
     - pi_d_a4_a1_proc_1 - pi_d_a4_a1_proc_0 + pi_d_a1_a5_proc_2
     + pi_d_a1_a5_proc_0 - pi_d_a5_a1_proc_2 - pi_d_a5_a1_proc_0
     + pi_d_a1_a6_proc_2 + pi_d_a1_a6_proc_1 + pi_d_a1_a6_proc_0
     - pi_d_a6_a1_proc_2 - pi_d_a6_a1_proc_1 - pi_d_a6_a1_proc_0
     + pi_d_a1_a7_proc_2 + pi_d_a1_a7_proc_1 + pi_d_a1_a7_proc_0
     - pi_d_a7_a1_proc_2 - pi_d_a7_a1_proc_1 - pi_d_a7_a1_proc_0
     + pi_d_a1_a8_proc_2 + pi_d_a1_a8_proc_1 + pi_d_a1_a8_proc_0
     - pi_d_a8_a1_proc_2 - pi_d_a8_a1_proc_1 - pi_d_a8_a1_proc_0
     + pi_d_a1_a9_proc_1 - pi_d_a9_a1_proc_1 >= 0
 c8: 803 pi_p_a1_a0 + 803 pi_p_a1_a9 + 803 pi_d_a1_a0_proc_0
     + 803 pi_d_a1_a2_proc_0 + 803 pi_d_a1_a3_proc_0 + 803 pi_d_a1_a4_proc_0
     + 803 pi_d_a1_a5_proc_0 + 803 pi_d_a1_a6_proc_0 + 803 pi_d_a1_a7_proc_0
     + 803 pi_d_a1_a8_proc_0 + pi_y1_a1 + pi_y2_a1_proc_0 >= 0
 c9: 1042 pi_p_a1_a0 + 1042 pi_p_a1_a9 + 1042 pi_d_a1_a0_proc_1
     + 1042 pi_d_a1_a2_proc_1 + 1042 pi_d_a1_a3_proc_1 + 1042 pi_d_a1_a4_proc_1
     + 1042 pi_d_a1_a6_proc_1 + 1042 pi_d_a1_a7_proc_1 + 1042 pi_d_a1_a8_proc_1
     + 1042 pi_d_a1_a9_proc_1 + pi_y1_a1 + pi_y2_a1_proc_1 >= 0
 c10: 1225 pi_p_a1_a0 + 1225 pi_p_a1_a9 + 1225 pi_d_a1_a0_proc_2
      + 1225 pi_d_a1_a2_proc_2 + 1225 pi_d_a1_a3_proc_2 + 1225 pi_d_a1_a4_proc_2
      + 1225 pi_d_a1_a5_proc_2 + 1225 pi_d_a1_a6_proc_2 + 1225 pi_d_a1_a7_proc_2
      + 1225 pi_d_a1_a8_proc_2 + pi_y1_a1 + pi_y2_a1_proc_2 >= 0
 c11: - pi_p_a0_a2 + pi_p_a2_a3 - pi_p_a5_a2 + pi_p_a2_a5 - pi_p_a7_a2
      - pi_d_a0_a2_proc_2 - pi_d_a0_a2_proc_1 - pi_d_a0_a2_proc_0
      + pi_d_a2_a0_proc_2 + pi_d_a2_a0_proc_1 + pi_d_a2_a0_proc_0
      - pi_d_a1_a2_proc_2 - pi_d_a1_a2_proc_1 - pi_d_a1_a2_proc_0
      + pi_d_a2_a1_proc_2 + pi_d_a2_a1_proc_1 + pi_d_a2_a1_proc_0
      + pi_d_a2_a3_proc_2 + pi_d_a2_a3_proc_1 + pi_d_a2_a3_proc_0
      - pi_d_a3_a2_proc_2 - pi_d_a3_a2_proc_1 - pi_d_a3_a2_proc_0
      + pi_d_a2_a4_proc_2 + pi_d_a2_a4_proc_1 + pi_d_a2_a4_proc_0
      - pi_d_a4_a2_proc_2 - pi_d_a4_a2_proc_1 - pi_d_a4_a2_proc_0
      + pi_d_a2_a5_proc_2 + pi_d_a2_a5_proc_0 - pi_d_a5_a2_proc_2
      - pi_d_a5_a2_proc_0 + pi_d_a2_a6_proc_2 + pi_d_a2_a6_proc_1
      + pi_d_a2_a6_proc_0 - pi_d_a6_a2_proc_2 - pi_d_a6_a2_proc_1
      - pi_d_a6_a2_proc_0 + pi_d_a2_a7_proc_2 + pi_d_a2_a7_proc_1
      + pi_d_a2_a7_proc_0 - pi_d_a7_a2_proc_2 - pi_d_a7_a2_proc_1
      - pi_d_a7_a2_proc_0 + pi_d_a2_a8_proc_2 + pi_d_a2_a8_proc_1
      + pi_d_a2_a8_proc_0 - pi_d_a8_a2_proc_2 - pi_d_a8_a2_proc_1
      - pi_d_a8_a2_proc_0 + pi_d_a2_a9_proc_1 - pi_d_a9_a2_proc_1 >= 0
 c12: 844 pi_p_a2_a3 + 844 pi_p_a2_a5 + 844 pi_d_a2_a0_proc_0
      + 844 pi_d_a2_a1_proc_0 + 844 pi_d_a2_a3_proc_0 + 844 pi_d_a2_a4_proc_0
      + 844 pi_d_a2_a5_proc_0 + 844 pi_d_a2_a6_proc_0 + 844 pi_d_a2_a7_proc_0
      + 844 pi_d_a2_a8_proc_0 + pi_y1_a2 + pi_y2_a2_proc_0 >= 0
 c13: 541 pi_p_a2_a3 + 541 pi_p_a2_a5 + 541 pi_d_a2_a0_proc_1
      + 541 pi_d_a2_a1_proc_1 + 541 pi_d_a2_a3_proc_1 + 541 pi_d_a2_a4_proc_1
      + 541 pi_d_a2_a6_proc_1 + 541 pi_d_a2_a7_proc_1 + 541 pi_d_a2_a8_proc_1
      + 541 pi_d_a2_a9_proc_1 + pi_y1_a2 + pi_y2_a2_proc_1 >= 0
 c14: 1046 pi_p_a2_a3 + 1046 pi_p_a2_a5 + 1046 pi_d_a2_a0_proc_2
      + 1046 pi_d_a2_a1_proc_2 + 1046 pi_d_a2_a3_proc_2 + 1046 pi_d_a2_a4_proc_2
      + 1046 pi_d_a2_a5_proc_2 + 1046 pi_d_a2_a6_proc_2 + 1046 pi_d_a2_a7_proc_2
      + 1046 pi_d_a2_a8_proc_2 + pi_y1_a2 + pi_y2_a2_proc_2 >= 0
 c15: - pi_p_a2_a3 + pi_p_a3_a4 + pi_p_a3_a7 - pi_d_a0_a3_proc_2
      - pi_d_a0_a3_proc_1 - pi_d_a0_a3_proc_0 + pi_d_a3_a0_proc_2
      + pi_d_a3_a0_proc_1 + pi_d_a3_a0_proc_0 - pi_d_a1_a3_proc_2
      - pi_d_a1_a3_proc_1 - pi_d_a1_a3_proc_0 + pi_d_a3_a1_proc_2
      + pi_d_a3_a1_proc_1 + pi_d_a3_a1_proc_0 - pi_d_a2_a3_proc_2
      - pi_d_a2_a3_proc_1 - pi_d_a2_a3_proc_0 + pi_d_a3_a2_proc_2
      + pi_d_a3_a2_proc_1 + pi_d_a3_a2_proc_0 + pi_d_a3_a4_proc_2
      + pi_d_a3_a4_proc_1 + pi_d_a3_a4_proc_0 - pi_d_a4_a3_proc_2
      - pi_d_a4_a3_proc_1 - pi_d_a4_a3_proc_0 + pi_d_a3_a5_proc_2
      + pi_d_a3_a5_proc_0 - pi_d_a5_a3_proc_2 - pi_d_a5_a3_proc_0
      + pi_d_a3_a6_proc_2 + pi_d_a3_a6_proc_1 + pi_d_a3_a6_proc_0
      - pi_d_a6_a3_proc_2 - pi_d_a6_a3_proc_1 - pi_d_a6_a3_proc_0
      + pi_d_a3_a7_proc_2 + pi_d_a3_a7_proc_1 + pi_d_a3_a7_proc_0
      - pi_d_a7_a3_proc_2 - pi_d_a7_a3_proc_1 - pi_d_a7_a3_proc_0
      + pi_d_a3_a8_proc_2 + pi_d_a3_a8_proc_1 + pi_d_a3_a8_proc_0
      - pi_d_a8_a3_proc_2 - pi_d_a8_a3_proc_1 - pi_d_a8_a3_proc_0
      + pi_d_a3_a9_proc_1 - pi_d_a9_a3_proc_1 >= 0
 c16: 1123 pi_p_a3_a4 + 1123 pi_p_a3_a7 + 1123 pi_d_a3_a0_proc_0
      + 1123 pi_d_a3_a1_proc_0 + 1123 pi_d_a3_a2_proc_0 + 1123 pi_d_a3_a4_proc_0
      + 1123 pi_d_a3_a5_proc_0 + 1123 pi_d_a3_a6_proc_0 + 1123 pi_d_a3_a7_proc_0
      + 1123 pi_d_a3_a8_proc_0 + pi_y1_a3 + pi_y2_a3_proc_0 >= 0
 c17: 915 pi_p_a3_a4 + 915 pi_p_a3_a7 + 915 pi_d_a3_a0_proc_1
      + 915 pi_d_a3_a1_proc_1 + 915 pi_d_a3_a2_proc_1 + 915 pi_d_a3_a4_proc_1
      + 915 pi_d_a3_a6_proc_1 + 915 pi_d_a3_a7_proc_1 + 915 pi_d_a3_a8_proc_1
      + 915 pi_d_a3_a9_proc_1 + pi_y1_a3 + pi_y2_a3_proc_1 >= 0
 c18: 688 pi_p_a3_a4 + 688 pi_p_a3_a7 + 688 pi_d_a3_a0_proc_2
      + 688 pi_d_a3_a1_proc_2 + 688 pi_d_a3_a2_proc_2 + 688 pi_d_a3_a4_proc_2
      + 688 pi_d_a3_a5_proc_2 + 688 pi_d_a3_a6_proc_2 + 688 pi_d_a3_a7_proc_2
      + 688 pi_d_a3_a8_proc_2 + pi_y1_a3 + pi_y2_a3_proc_2 >= 0
 c19: - pi_p_a3_a4 + pi_p_a4_a6 + pi_p_a4_a5 - pi_d_a0_a4_proc_2
      - pi_d_a0_a4_proc_1 - pi_d_a0_a4_proc_0 + pi_d_a4_a0_proc_2
      + pi_d_a4_a0_proc_1 + pi_d_a4_a0_proc_0 - pi_d_a1_a4_proc_2
      - pi_d_a1_a4_proc_1 - pi_d_a1_a4_proc_0 + pi_d_a4_a1_proc_2
      + pi_d_a4_a1_proc_1 + pi_d_a4_a1_proc_0 - pi_d_a2_a4_proc_2
      - pi_d_a2_a4_proc_1 - pi_d_a2_a4_proc_0 + pi_d_a4_a2_proc_2
      + pi_d_a4_a2_proc_1 + pi_d_a4_a2_proc_0 - pi_d_a3_a4_proc_2
      - pi_d_a3_a4_proc_1 - pi_d_a3_a4_proc_0 + pi_d_a4_a3_proc_2
      + pi_d_a4_a3_proc_1 + pi_d_a4_a3_proc_0 + pi_d_a4_a5_proc_2
      + pi_d_a4_a5_proc_0 - pi_d_a5_a4_proc_2 - pi_d_a5_a4_proc_0
      + pi_d_a4_a6_proc_2 + pi_d_a4_a6_proc_1 + pi_d_a4_a6_proc_0
      - pi_d_a6_a4_proc_2 - pi_d_a6_a4_proc_1 - pi_d_a6_a4_proc_0
      + pi_d_a4_a7_proc_2 + pi_d_a4_a7_proc_1 + pi_d_a4_a7_proc_0
      - pi_d_a7_a4_proc_2 - pi_d_a7_a4_proc_1 - pi_d_a7_a4_proc_0
      + pi_d_a4_a8_proc_2 + pi_d_a4_a8_proc_1 + pi_d_a4_a8_proc_0
      - pi_d_a8_a4_proc_2 - pi_d_a8_a4_proc_1 - pi_d_a8_a4_proc_0
      + pi_d_a4_a9_proc_1 - pi_d_a9_a4_proc_1 >= 0
 c20: 743 pi_p_a4_a6 + 743 pi_p_a4_a5 + 743 pi_d_a4_a0_proc_0
      + 743 pi_d_a4_a1_proc_0 + 743 pi_d_a4_a2_proc_0 + 743 pi_d_a4_a3_proc_0
      + 743 pi_d_a4_a5_proc_0 + 743 pi_d_a4_a6_proc_0 + 743 pi_d_a4_a7_proc_0
      + 743 pi_d_a4_a8_proc_0 + pi_y1_a4 + pi_y2_a4_proc_0 >= 0
 c21: 1022 pi_p_a4_a6 + 1022 pi_p_a4_a5 + 1022 pi_d_a4_a0_proc_1
      + 1022 pi_d_a4_a1_proc_1 + 1022 pi_d_a4_a2_proc_1 + 1022 pi_d_a4_a3_proc_1
      + 1022 pi_d_a4_a6_proc_1 + 1022 pi_d_a4_a7_proc_1 + 1022 pi_d_a4_a8_proc_1
      + 1022 pi_d_a4_a9_proc_1 + pi_y1_a4 + pi_y2_a4_proc_1 >= 0
 c22: 1254 pi_p_a4_a6 + 1254 pi_p_a4_a5 + 1254 pi_d_a4_a0_proc_2
      + 1254 pi_d_a4_a1_proc_2 + 1254 pi_d_a4_a2_proc_2 + 1254 pi_d_a4_a3_proc_2
      + 1254 pi_d_a4_a5_proc_2 + 1254 pi_d_a4_a6_proc_2 + 1254 pi_d_a4_a7_proc_2
      + 1254 pi_d_a4_a8_proc_2 + pi_y1_a4 + pi_y2_a4_proc_2 >= 0
 c23: pi_p_a5_a2 - pi_p_a2_a5 - pi_p_a4_a5 - pi_p_a9_a5 - pi_d_a0_a5_proc_2
      - pi_d_a0_a5_proc_0 + pi_d_a5_a0_proc_2 + pi_d_a5_a0_proc_0
      - pi_d_a1_a5_proc_2 - pi_d_a1_a5_proc_0 + pi_d_a5_a1_proc_2
      + pi_d_a5_a1_proc_0 - pi_d_a2_a5_proc_2 - pi_d_a2_a5_proc_0
      + pi_d_a5_a2_proc_2 + pi_d_a5_a2_proc_0 - pi_d_a3_a5_proc_2
      - pi_d_a3_a5_proc_0 + pi_d_a5_a3_proc_2 + pi_d_a5_a3_proc_0
      - pi_d_a4_a5_proc_2 - pi_d_a4_a5_proc_0 + pi_d_a5_a4_proc_2
      + pi_d_a5_a4_proc_0 + pi_d_a5_a6_proc_2 + pi_d_a5_a6_proc_0
      - pi_d_a6_a5_proc_2 - pi_d_a6_a5_proc_0 + pi_d_a5_a7_proc_2
      + pi_d_a5_a7_proc_0 - pi_d_a7_a5_proc_2 - pi_d_a7_a5_proc_0
      + pi_d_a5_a8_proc_2 + pi_d_a5_a8_proc_0 - pi_d_a8_a5_proc_2
      - pi_d_a8_a5_proc_0 >= 0
 c24: 956 pi_p_a5_a2 + 956 pi_d_a5_a0_proc_0 + 956 pi_d_a5_a1_proc_0
      + 956 pi_d_a5_a2_proc_0 + 956 pi_d_a5_a3_proc_0 + 956 pi_d_a5_a4_proc_0
      + 956 pi_d_a5_a6_proc_0 + 956 pi_d_a5_a7_proc_0 + 956 pi_d_a5_a8_proc_0
      + pi_y1_a5 + pi_y2_a5_proc_0 >= 0
 c25: 770 pi_p_a5_a2 + 770 pi_d_a5_a0_proc_2 + 770 pi_d_a5_a1_proc_2
      + 770 pi_d_a5_a2_proc_2 + 770 pi_d_a5_a3_proc_2 + 770 pi_d_a5_a4_proc_2
      + 770 pi_d_a5_a6_proc_2 + 770 pi_d_a5_a7_proc_2 + 770 pi_d_a5_a8_proc_2
      + pi_y1_a5 + pi_y2_a5_proc_2 >= 0
 c26: pi_p_a6_a1 + pi_p_a6_a7 + pi_p_a6_a8 - pi_p_a4_a6 - pi_p_a8_a6
      - pi_d_a0_a6_proc_2 - pi_d_a0_a6_proc_1 - pi_d_a0_a6_proc_0
      + pi_d_a6_a0_proc_2 + pi_d_a6_a0_proc_1 + pi_d_a6_a0_proc_0
      - pi_d_a1_a6_proc_2 - pi_d_a1_a6_proc_1 - pi_d_a1_a6_proc_0
      + pi_d_a6_a1_proc_2 + pi_d_a6_a1_proc_1 + pi_d_a6_a1_proc_0
      - pi_d_a2_a6_proc_2 - pi_d_a2_a6_proc_1 - pi_d_a2_a6_proc_0
      + pi_d_a6_a2_proc_2 + pi_d_a6_a2_proc_1 + pi_d_a6_a2_proc_0
      - pi_d_a3_a6_proc_2 - pi_d_a3_a6_proc_1 - pi_d_a3_a6_proc_0
      + pi_d_a6_a3_proc_2 + pi_d_a6_a3_proc_1 + pi_d_a6_a3_proc_0
      - pi_d_a4_a6_proc_2 - pi_d_a4_a6_proc_1 - pi_d_a4_a6_proc_0
      + pi_d_a6_a4_proc_2 + pi_d_a6_a4_proc_1 + pi_d_a6_a4_proc_0
      - pi_d_a5_a6_proc_2 - pi_d_a5_a6_proc_0 + pi_d_a6_a5_proc_2
      + pi_d_a6_a5_proc_0 + pi_d_a6_a7_proc_2 + pi_d_a6_a7_proc_1
      + pi_d_a6_a7_proc_0 - pi_d_a7_a6_proc_2 - pi_d_a7_a6_proc_1
      - pi_d_a7_a6_proc_0 + pi_d_a6_a8_proc_2 + pi_d_a6_a8_proc_1
      + pi_d_a6_a8_proc_0 - pi_d_a8_a6_proc_2 - pi_d_a8_a6_proc_1
      - pi_d_a8_a6_proc_0 + pi_d_a6_a9_proc_1 - pi_d_a9_a6_proc_1 >= 0
 c27: 1149 pi_p_a6_a1 + 1149 pi_p_a6_a7 + 1149 pi_p_a6_a8
      + 1149 pi_d_a6_a0_proc_0 + 1149 pi_d_a6_a1_proc_0 + 1149 pi_d_a6_a2_proc_0
      + 1149 pi_d_a6_a3_proc_0 + 1149 pi_d_a6_a4_proc_0 + 1149 pi_d_a6_a5_proc_0
      + 1149 pi_d_a6_a7_proc_0 + 1149 pi_d_a6_a8_proc_0 + pi_y1_a6
      + pi_y2_a6_proc_0 >= 0
 c28: 835 pi_p_a6_a1 + 835 pi_p_a6_a7 + 835 pi_p_a6_a8 + 835 pi_d_a6_a0_proc_1
      + 835 pi_d_a6_a1_proc_1 + 835 pi_d_a6_a2_proc_1 + 835 pi_d_a6_a3_proc_1
      + 835 pi_d_a6_a4_proc_1 + 835 pi_d_a6_a7_proc_1 + 835 pi_d_a6_a8_proc_1
      + 835 pi_d_a6_a9_proc_1 + pi_y1_a6 + pi_y2_a6_proc_1 >= 0
 c29: 1197 pi_p_a6_a1 + 1197 pi_p_a6_a7 + 1197 pi_p_a6_a8
      + 1197 pi_d_a6_a0_proc_2 + 1197 pi_d_a6_a1_proc_2 + 1197 pi_d_a6_a2_proc_2
      + 1197 pi_d_a6_a3_proc_2 + 1197 pi_d_a6_a4_proc_2 + 1197 pi_d_a6_a5_proc_2
      + 1197 pi_d_a6_a7_proc_2 + 1197 pi_d_a6_a8_proc_2 + pi_y1_a6
      + pi_y2_a6_proc_2 >= 0
 c30: - pi_p_a6_a7 + pi_p_a7_a2 - pi_p_a3_a7 - pi_d_a0_a7_proc_2
      - pi_d_a0_a7_proc_1 - pi_d_a0_a7_proc_0 + pi_d_a7_a0_proc_2
      + pi_d_a7_a0_proc_1 + pi_d_a7_a0_proc_0 - pi_d_a1_a7_proc_2
      - pi_d_a1_a7_proc_1 - pi_d_a1_a7_proc_0 + pi_d_a7_a1_proc_2
      + pi_d_a7_a1_proc_1 + pi_d_a7_a1_proc_0 - pi_d_a2_a7_proc_2
      - pi_d_a2_a7_proc_1 - pi_d_a2_a7_proc_0 + pi_d_a7_a2_proc_2
      + pi_d_a7_a2_proc_1 + pi_d_a7_a2_proc_0 - pi_d_a3_a7_proc_2
      - pi_d_a3_a7_proc_1 - pi_d_a3_a7_proc_0 + pi_d_a7_a3_proc_2
      + pi_d_a7_a3_proc_1 + pi_d_a7_a3_proc_0 - pi_d_a4_a7_proc_2
      - pi_d_a4_a7_proc_1 - pi_d_a4_a7_proc_0 + pi_d_a7_a4_proc_2
      + pi_d_a7_a4_proc_1 + pi_d_a7_a4_proc_0 - pi_d_a5_a7_proc_2
      - pi_d_a5_a7_proc_0 + pi_d_a7_a5_proc_2 + pi_d_a7_a5_proc_0
      - pi_d_a6_a7_proc_2 - pi_d_a6_a7_proc_1 - pi_d_a6_a7_proc_0
      + pi_d_a7_a6_proc_2 + pi_d_a7_a6_proc_1 + pi_d_a7_a6_proc_0
      + pi_d_a7_a8_proc_2 + pi_d_a7_a8_proc_1 + pi_d_a7_a8_proc_0
      - pi_d_a8_a7_proc_2 - pi_d_a8_a7_proc_1 - pi_d_a8_a7_proc_0
      + pi_d_a7_a9_proc_1 - pi_d_a9_a7_proc_1 >= 0
 c31: 475 pi_p_a7_a2 + 475 pi_d_a7_a0_proc_0 + 475 pi_d_a7_a1_proc_0
      + 475 pi_d_a7_a2_proc_0 + 475 pi_d_a7_a3_proc_0 + 475 pi_d_a7_a4_proc_0
      + 475 pi_d_a7_a5_proc_0 + 475 pi_d_a7_a6_proc_0 + 475 pi_d_a7_a8_proc_0
      + pi_y1_a7 + pi_y2_a7_proc_0 >= 0
 c32: 1052 pi_p_a7_a2 + 1052 pi_d_a7_a0_proc_1 + 1052 pi_d_a7_a1_proc_1
      + 1052 pi_d_a7_a2_proc_1 + 1052 pi_d_a7_a3_proc_1 + 1052 pi_d_a7_a4_proc_1
      + 1052 pi_d_a7_a6_proc_1 + 1052 pi_d_a7_a8_proc_1 + 1052 pi_d_a7_a9_proc_1
      + pi_y1_a7 + pi_y2_a7_proc_1 >= 0
 c33: 822 pi_p_a7_a2 + 822 pi_d_a7_a0_proc_2 + 822 pi_d_a7_a1_proc_2
      + 822 pi_d_a7_a2_proc_2 + 822 pi_d_a7_a3_proc_2 + 822 pi_d_a7_a4_proc_2
      + 822 pi_d_a7_a5_proc_2 + 822 pi_d_a7_a6_proc_2 + 822 pi_d_a7_a8_proc_2
      + pi_y1_a7 + pi_y2_a7_proc_2 >= 0
 c34: - pi_p_a6_a8 + pi_p_a8_a6 - pi_d_a0_a8_proc_2 - pi_d_a0_a8_proc_1
      - pi_d_a0_a8_proc_0 + pi_d_a8_a0_proc_2 + pi_d_a8_a0_proc_1
      + pi_d_a8_a0_proc_0 - pi_d_a1_a8_proc_2 - pi_d_a1_a8_proc_1
      - pi_d_a1_a8_proc_0 + pi_d_a8_a1_proc_2 + pi_d_a8_a1_proc_1
      + pi_d_a8_a1_proc_0 - pi_d_a2_a8_proc_2 - pi_d_a2_a8_proc_1
      - pi_d_a2_a8_proc_0 + pi_d_a8_a2_proc_2 + pi_d_a8_a2_proc_1
      + pi_d_a8_a2_proc_0 - pi_d_a3_a8_proc_2 - pi_d_a3_a8_proc_1
      - pi_d_a3_a8_proc_0 + pi_d_a8_a3_proc_2 + pi_d_a8_a3_proc_1
      + pi_d_a8_a3_proc_0 - pi_d_a4_a8_proc_2 - pi_d_a4_a8_proc_1
      - pi_d_a4_a8_proc_0 + pi_d_a8_a4_proc_2 + pi_d_a8_a4_proc_1
      + pi_d_a8_a4_proc_0 - pi_d_a5_a8_proc_2 - pi_d_a5_a8_proc_0
      + pi_d_a8_a5_proc_2 + pi_d_a8_a5_proc_0 - pi_d_a6_a8_proc_2
      - pi_d_a6_a8_proc_1 - pi_d_a6_a8_proc_0 + pi_d_a8_a6_proc_2
      + pi_d_a8_a6_proc_1 + pi_d_a8_a6_proc_0 - pi_d_a7_a8_proc_2
      - pi_d_a7_a8_proc_1 - pi_d_a7_a8_proc_0 + pi_d_a8_a7_proc_2
      + pi_d_a8_a7_proc_1 + pi_d_a8_a7_proc_0 + pi_d_a8_a9_proc_1
      - pi_d_a9_a8_proc_1 >= 0
 c35: 986 pi_p_a8_a6 + 986 pi_d_a8_a0_proc_0 + 986 pi_d_a8_a1_proc_0
      + 986 pi_d_a8_a2_proc_0 + 986 pi_d_a8_a3_proc_0 + 986 pi_d_a8_a4_proc_0
      + 986 pi_d_a8_a5_proc_0 + 986 pi_d_a8_a6_proc_0 + 986 pi_d_a8_a7_proc_0
      + pi_y1_a8 + pi_y2_a8_proc_0 >= 0
 c36: 846 pi_p_a8_a6 + 846 pi_d_a8_a0_proc_1 + 846 pi_d_a8_a1_proc_1
      + 846 pi_d_a8_a2_proc_1 + 846 pi_d_a8_a3_proc_1 + 846 pi_d_a8_a4_proc_1
      + 846 pi_d_a8_a6_proc_1 + 846 pi_d_a8_a7_proc_1 + 846 pi_d_a8_a9_proc_1
      + pi_y1_a8 + pi_y2_a8_proc_1 >= 0
 c37: 705 pi_p_a8_a6 + 705 pi_d_a8_a0_proc_2 + 705 pi_d_a8_a1_proc_2
      + 705 pi_d_a8_a2_proc_2 + 705 pi_d_a8_a3_proc_2 + 705 pi_d_a8_a4_proc_2
      + 705 pi_d_a8_a5_proc_2 + 705 pi_d_a8_a6_proc_2 + 705 pi_d_a8_a7_proc_2
      + pi_y1_a8 + pi_y2_a8_proc_2 >= 0
 c38: - pi_p_a1_a9 + pi_p_a9_a5 - pi_d_a0_a9_proc_1 + pi_d_a9_a0_proc_1
      - pi_d_a1_a9_proc_1 + pi_d_a9_a1_proc_1 - pi_d_a2_a9_proc_1
      + pi_d_a9_a2_proc_1 - pi_d_a3_a9_proc_1 + pi_d_a9_a3_proc_1
      - pi_d_a4_a9_proc_1 + pi_d_a9_a4_proc_1 - pi_d_a6_a9_proc_1
      + pi_d_a9_a6_proc_1 - pi_d_a7_a9_proc_1 + pi_d_a9_a7_proc_1
      - pi_d_a8_a9_proc_1 + pi_d_a9_a8_proc_1 >= 0
 c39: 1051 pi_p_a9_a9 + 1051 pi_p_a9_a5 + 1051 pi_d_a9_a0_proc_1
      + 1051 pi_d_a9_a1_proc_1 + 1051 pi_d_a9_a2_proc_1 + 1051 pi_d_a9_a3_proc_1
      + 1051 pi_d_a9_a4_proc_1 + 1051 pi_d_a9_a6_proc_1 + 1051 pi_d_a9_a7_proc_1
      + 1051 pi_d_a9_a8_proc_1 + pi_y1_a9 + pi_y2_a9_proc_1 >= 0

Bounds
       pi_y1_a0 Free
       pi_y1_a1 Free
       pi_y1_a2 Free
       pi_y1_a3 Free
       pi_y1_a4 Free
       pi_y1_a5 Free
       pi_y1_a6 Free
       pi_y1_a7 Free
       pi_y1_a8 Free
       pi_y1_a9 Free
End
